839110
95,47,57,33,9,70,1,48,37,74,32,31,60,20,21,96,30,77,41,6,75,69,18,56,10,49,62,93,63,13,68,99,80,87,45,86,81,4,66,7,73,22,84,92,39,14,65,52,43,24,78,25,51,79,29,40,94,26,17,12,19,59,90,71,34,46,28,98,54,23,11,67,27,2,64,5,3,42,97,35,61,58,82,16,15,83,76,38,88,50,36,72,55,44,91,53,8,89,85